p cnf 12 50 
2 -7 -10 0
1 -10 4 0
12 -11 -6 0
-4 6 8 0
7 -2 -1 0
-4 -12 9 0
2 11 -9 0
11 -7 -10 0
-11 -4 -7 0
-8 9 5 0
-1 5 9 0
7 11 3 0
-5 -2 9 0
11 -6 -10 0
-10 -3 6 0
-7 -10 5 0
-10 2 7 0
1 11 5 0
-4 -10 -6 0
6 10 9 0
7 -1 3 0
-2 9 1 0
-1 7 -8 0
-3 -8 -12 0
8 -10 4 0
-9 -4 3 0
-1 -4 -7 0
7 -6 -12 0
-8 -6 -4 0
5 2 -4 0
-9 -10 -11 0
4 2 -9 0
-2 6 12 0
9 -12 6 0
5 9 1 0
10 -9 -3 0
11 5 -2 0
1 3 -4 0
-6 -2 10 0
-1 10 5 0
12 1 9 0
11 -7 9 0
11 -2 -9 0
-12 9 -3 0
9 -2 -3 0
-9 -7 -10 0
6 5 1 0
1 6 8 0
4 8 10 0
-7 -8 -2 0
